5 5
1 4 2 34 4 62 0 38 3 81
4 71 1 96 3 23 0 20 2 56
2 53 4 2 1 21 3 76 0 42
1 57 4 49 2 91 0 10 3 72
3 61 2 21 0 60 4 86 1 13
-1
0 2 3 4 5
0 3 5
0 1 2 5
0 1 4 5
0 3 4 5
-2
50 125 204 324
299 330
75 85 204
86 305 395
209 339 285

371 6
22 3 8 18 14
0 15 12 6 24
10 1 21 17 9
20 13 7 4 19
5 11 2 16 23
